NAME lp_typeD_970
OBJSENSE MAX
ROWS
 N  OBJ
 L  c0      
 L  c1      
 G  c2      
 G  c3      
 L  c_key_upper
 G  c_key_lower
 G  _chain_constr_1
 G  _chain_constr_2
 G  _chain_constr_3
 G  _chain_constr_4
 G  _chain_constr_5
 G  _chain_cycle
COLUMNS
    x0        OBJ       6.1359844048973256e-01
    x0        c0        5.0422383968229734e-01
    x0        c1        1.0506977271598685e+00
    x0        c2        1.2478957656576344e+00
    x0        c3        1.9279644044751982e+00
    x0        c_key_upper  1.8829896590117472e+00
    x0        c_key_lower  1.8829896590117472e+00
    x1        OBJ       5.8395468154125840e-01
    x1        c0        1.96306260422863
    x1        c1        0.93574809656037
    x1        c2        1.4611650541203576e+00
    x1        c3        5.2640664512425028e-01
    x1        c_key_upper  1.6089147344457242e+00
    x1        c_key_lower  1.6089147344457242e+00
    x2        OBJ       7.4404238652361210e-01
    x2        c0        6.8410185648732391e-01
    x2        c1        5.3901815015126409e-01
    x2        c2        1.9535361409130818e+00
    x2        c3        6.6431478167638347e-01
    x2        c_key_upper  1.2184356854131626e+00
    x2        c_key_lower  1.2184356854131626e+00
    x3        OBJ       9.3857013167103864e-01
    x3        c0        1.2827736108797536e+00
    x3        c1        1.0045426438980762e+00
    x3        c2        1.9974089470719592e+00
    x3        c3        0.876798411384738
    x3        c_key_upper  1.7176404590593282e+00
    x3        c_key_lower  1.7176404590593282e+00
    x4        OBJ       1.4762430879577462e+00
    x4        c0        9.2202520789663311e-01
    x4        c1        1.7953876724172584e+00
    x4        c2        1.0213075020672295e+00
    x4        c3        1.2107286296117326e+00
    x4        c_key_upper  1.4746454761410768e+00
    x4        c_key_lower  1.4746454761410768e+00
    x5        OBJ       9.6824572392067465e-01
    x5        c0        1.3066199343855178e+00
    x5        c1        1.6189466603249176e+00
    x5        c2        9.0766771712165939e-01
    x5        c3        1.0680516861497162e+00
    x5        c_key_upper  1.9693801029652951e+00
    x5        c_key_lower  1.9693801029652951e+00
    x6        OBJ       6.5181516163395337e-01
    x6        c0        9.7785289428269140e-01
    x6        c1        6.2105519217022342e-01
    x6        c2        1.9678354006421948e+00
    x6        c3        1.1577800703038761e+00
    x6        c_key_upper  1.9684529955595076e+00
    x6        c_key_lower  1.9684529955595076e+00
    x7        OBJ       9.6097385359615506e-01
    x7        c0        0.848581921311321
    x7        c1        1.6728427237883747e+00
    x7        c2        1.9898212644235320e+00
    x7        c3        1.8160696441742596e+00
    x7        c_key_upper  1.1610108385446136e+00
    x7        c_key_lower  1.1610108385446136e+00
    x8        OBJ       5.5443590138987753e-01
    x8        c0        1.7837330910711247e+00
    x8        c1        1.3986146939460560e+00
    x8        c2        1.0645648964508141e+00
    x8        c3        1.7238364734186646e+00
    x8        c_key_upper  1.5440349697081377e+00
    x8        c_key_lower  1.5440349697081377e+00
    _chain_var_0  _chain_constr_1  -1
    _chain_var_0  _chain_cycle  1
    _chain_var_1  _chain_constr_1  1
    _chain_var_1  _chain_constr_2  -1
    _chain_var_2  _chain_constr_2  1
    _chain_var_2  _chain_constr_3  -1
    _chain_var_3  _chain_constr_3  1
    _chain_var_3  _chain_constr_4  -1
    _chain_var_4  _chain_constr_4  1
    _chain_var_4  _chain_constr_5  -1
    _chain_var_5  _chain_constr_5  1
    _chain_var_5  _chain_cycle  -1
RHS
    RHS1      c0        5.8733933258238508e+01
    RHS1      c1        5.7299486021160916e+01
    RHS1      c2        15.3972735833436
    RHS1      c3        1.9310865184200892e+01
    RHS1      c_key_upper  7.2727524604242973e+01
    RHS1      c_key_lower  3.6363762302121486e+01
    RHS1      _chain_constr_1  10
    RHS1      _chain_constr_2  10
    RHS1      _chain_constr_3  10
    RHS1      _chain_constr_4  10
    RHS1      _chain_constr_5  10
    RHS1      _chain_cycle  10
BOUNDS
 UP BND1      x0        10
 UP BND1      x1        10
 UP BND1      x2        10
 UP BND1      x3        10
 UP BND1      x4        10
 UP BND1      x5        10
 UP BND1      x6        10
 UP BND1      x7        10
 UP BND1      x8        10
 UP BND1      _chain_var_0  100
 UP BND1      _chain_var_1  100
 UP BND1      _chain_var_2  100
 UP BND1      _chain_var_3  100
 UP BND1      _chain_var_4  100
 UP BND1      _chain_var_5  100
ENDATA
